\ENCODING=ISO-8859-1
\Problem name: nSARP

Maximize
 obj: - 12.2666666666667 x(0,1,0) - 12.2666666666667 x(0,1,1)
      - 39.8697333333333 x(0,2,0) - 39.8697333333333 x(0,2,1) - 46 x(0,3,0)
      - 46 x(0,3,1) - 58.2666666666667 x(1,0,0) - 58.2666666666667 x(1,0,1)
      - 73.6 x(1,2,0) - 73.6 x(1,2,1) - 12.2666666666667 x(1,3,0)
      - 12.2666666666667 x(1,3,1) + 142.34 x(2,0,0) + 142.34 x(2,0,1)
      + 105.54 x(2,1,0) + 105.54 x(2,1,1) + 157.673333333333 x(2,2,0)
      + 157.673333333333 x(2,2,1) - 70.5333333333333 x(3,0,0)
      - 70.5333333333333 x(3,0,1) - 33.7333333333333 x(3,1,0)
      - 33.7333333333333 x(3,1,1) - 30.6666666666667 x(4,0,0)
      - 30.6666666666667 x(4,0,1) - 67.4666666666667 x(4,1,0)
      - 67.4666666666667 x(4,1,1) - 15.3333333333333 x(4,2,0)
      - 15.3333333333333 x(4,2,1) - 30.6666666666667 x(5,0,0)
      - 30.6666666666667 x(5,0,1) - 67.4666666666667 x(5,1,0)
      - 67.4666666666667 x(5,1,1) - 15.3333333333333 x(5,2,0)
      - 15.3333333333333 x(5,2,1) + 0 y(6) + 63.48
Subject To
 Constraint1_0:    x(0,1,0) + x(0,1,1) + x(0,2,0) + x(0,2,1) + x(0,3,0)
                   + x(0,3,1) + x(0,6,0) + x(0,6,1)  = 1
 Constraint1_1:    x(1,0,0) + x(1,0,1) + x(1,2,0) + x(1,2,1) + x(1,3,0)
                   + x(1,3,1) + x(1,6,0) + x(1,6,1)  = 1
 Constraint2_2:    x(2,0,0) + x(2,0,1) + x(2,1,0) + x(2,1,1) + x(2,2,0)
                   + x(2,2,1) - y(2)  = 0
 Constraint3_2_0:  x(2,0,0) + x(2,1,0) + x(2,2,0) - x(3,0,0) - x(3,1,0)
                   - x(3,3,0) - x(3,6,0)  = 0
 Constraint3_2_1:  x(2,0,1) + x(2,1,1) + x(2,2,1) - x(3,0,1) - x(3,1,1)
                   - x(3,3,1) - x(3,6,1)  = 0
 Constraint4_0_0:  x(0,1,0) + x(0,2,0) + x(0,3,0) + x(0,6,0) - x(1,0,0)
                   - x(2,0,0) - x(3,0,0) - x(4,0,0) - x(5,0,0)  = 0
 Constraint4_0_1:  x(0,1,1) + x(0,2,1) + x(0,3,1) + x(0,6,1) - x(1,0,1)
                   - x(2,0,1) - x(3,0,1) - x(4,0,1) - x(5,0,1)  = 0
 Constraint4_1_0:  - x(0,1,0) + x(1,0,0) + x(1,2,0) + x(1,3,0) + x(1,6,0)
                   - x(2,1,0) - x(3,1,0) - x(4,1,0) - x(5,1,0)  = 0
 Constraint4_1_1:  - x(0,1,1) + x(1,0,1) + x(1,2,1) + x(1,3,1) + x(1,6,1)
                   - x(2,1,1) - x(3,1,1) - x(4,1,1) - x(5,1,1)  = 0
 Constraint4_2_0:  - x(0,2,0) - x(1,2,0) + x(2,0,0) + x(2,1,0) - x(4,2,0)
                   - x(5,2,0)  = 0
 Constraint4_2_1:  - x(0,2,1) - x(1,2,1) + x(2,0,1) + x(2,1,1) - x(4,2,1)
                   - x(5,2,1)  = 0
 Constraint4_3_0:  - x(0,3,0) - x(1,3,0) + x(3,0,0) + x(3,1,0) + x(3,6,0)  = 0
 Constraint4_3_1:  - x(0,3,1) - x(1,3,1) + x(3,0,1) + x(3,1,1) + x(3,6,1)  = 0
 Constraint5_0:    x(4,0,0) + x(4,1,0) + x(4,2,0)  = 1
 Constraint5_1:    x(5,0,1) + x(5,1,1) + x(5,2,1)  = 1
 Constraint6_0:    x(0,6,0) + x(1,6,0) + x(3,6,0)  = 1
 Constraint6_1:    x(0,6,1) + x(1,6,1) + x(3,6,1)  = 1
 Constraint7_0:    - 34 y(0) + b(0) <= 0
 Constraint7_1:    - 34 y(1) + b(1) <= 0
 Constraint7_2:    - 34 y(2) + b(2) <= 0
 Constraint7_3:    - 34 y(3) + b(3) <= 0
 Constraint7_4:    - 34 y(4) + b(4) <= 0
 Constraint7_5:    - 34 y(5) + b(5) <= 0
 Constraint8_2:    b(2) - b(3) <= 0
 Constraint9_0_1:  34 x(0,1,0) + 34 x(0,1,1) + b(0) - b(1) <= 31.8821138211382
 Constraint9_0_2:  34 x(0,2,0) + 34 x(0,2,1) + b(0) - b(2) <= 30.4185365853659
 Constraint9_0_3:  34 x(0,3,0) + 34 x(0,3,1) + b(0) - b(3) <= 30.0934959349593
 Constraint9_0_6:  34 x(0,6,0) + 34 x(0,6,1) + b(0) - b(6) <= 32.5325203252033
 Constraint9_1_0:  34 x(1,0,0) + 34 x(1,0,1) - b(0) + b(1) <= 29.6056910569106
 Constraint9_1_2:  34 x(1,2,0) + 34 x(1,2,1) + b(1) - b(2) <= 28.7926829268293
 Constraint9_1_3:  34 x(1,3,0) + 34 x(1,3,1) + b(1) - b(3) <= 32.0447154471545
 Constraint9_1_6:  34 x(1,6,0) + 34 x(1,6,1) + b(1) - b(6) <= 32.6951219512195
 Constraint9_2_0:  34 x(2,0,0) + 34 x(2,0,1) - b(0) + b(2) <= 33.1036585365854
 Constraint9_2_1:  34 x(2,1,0) + 34 x(2,1,1) - b(1) + b(2) <= 31.1524390243902
 Constraint9_2_2:  34 x(2,2,0) + 34 x(2,2,1) <= 33.9166666666667
 Constraint9_3_0:  34 x(3,0,0) + 34 x(3,0,1) - b(0) + b(3) <= 30.1768292682927
 Constraint9_3_1:  34 x(3,1,0) + 34 x(3,1,1) - b(1) + b(3) <= 32.1280487804878
 Constraint9_3_3:  34 x(3,3,0) + 34 x(3,3,1) <= 33.9166666666667
 Constraint9_3_6:  34 x(3,6,0) + 34 x(3,6,1) + b(3) - b(6) <= 33.9166666666667
 Constraint9_4_0:  34 x(4,0,0) + 34 x(4,0,1) - b(0) + b(4) <= 32.3739837398374
 Constraint9_4_1:  34 x(4,1,0) + 34 x(4,1,1) - b(1) + b(4) <= 30.4227642276423
 Constraint9_4_2:  34 x(4,2,0) + 34 x(4,2,1) - b(2) + b(4) <= 33.1869918699187
 Constraint9_5_0:  34 x(5,0,0) + 34 x(5,0,1) - b(0) + b(5) <= 32.3739837398374
 Constraint9_5_1:  34 x(5,1,0) + 34 x(5,1,1) - b(1) + b(5) <= 30.4227642276423
 Constraint9_5_2:  34 x(5,2,0) + 34 x(5,2,1) - b(2) + b(5) <= 33.1869918699187
 Constraint10_0_1: - 2 x(0,1,0) - 2 x(0,1,1) - w(0) + w(1) >= -2
 Constraint10_0_2: - 2 x(0,2,0) - 2 x(0,2,1) - w(0) + w(2) >= -1
 Constraint10_0_3: - 2 x(0,3,0) - 2 x(0,3,1) - w(0) + w(3) >= -3
 Constraint10_0_6: - 2 x(0,6,0) - 2 x(0,6,1) - w(0) + w(6) >= -2
 Constraint10_1_0: - 2 x(1,0,0) - 2 x(1,0,1) + w(0) - w(1) >= -2
 Constraint10_1_2: - 2 x(1,2,0) - 2 x(1,2,1) - w(1) + w(2) >= -1
 Constraint10_1_3: - 2 x(1,3,0) - 2 x(1,3,1) - w(1) + w(3) >= -3
 Constraint10_1_6: - 2 x(1,6,0) - 2 x(1,6,1) - w(1) + w(6) >= -2
 Constraint10_2_0: - 2 x(2,0,0) - 2 x(2,0,1) + w(0) - w(2) >= -2
 Constraint10_2_1: - 2 x(2,1,0) - 2 x(2,1,1) + w(1) - w(2) >= -2
 Constraint10_2_2: - 2 x(2,2,0) - 2 x(2,2,1) >= -1
 Constraint10_3_0: - 2 x(3,0,0) - 2 x(3,0,1) + w(0) - w(3) >= -2
 Constraint10_3_1: - 2 x(3,1,0) - 2 x(3,1,1) + w(1) - w(3) >= -2
 Constraint10_3_3: - 2 x(3,3,0) - 2 x(3,3,1) >= -3
 Constraint10_3_6: - 2 x(3,6,0) - 2 x(3,6,1) - w(3) + w(6) >= -2
 Constraint10_4_0: - 2 x(4,0,0) - 2 x(4,0,1) + w(0) - w(4) >= -2
 Constraint10_4_1: - 2 x(4,1,0) - 2 x(4,1,1) + w(1) - w(4) >= -2
 Constraint10_4_2: - 2 x(4,2,0) - 2 x(4,2,1) + w(2) - w(4) >= -1
 Constraint10_5_0: - 2 x(5,0,0) - 2 x(5,0,1) + w(0) - w(5) >= -2
 Constraint10_5_1: - 2 x(5,1,0) - 2 x(5,1,1) + w(1) - w(5) >= -2
 Constraint10_5_2: - 2 x(5,2,0) - 2 x(5,2,1) + w(2) - w(5) >= -1
 Constraint11_0_0: b(0) <= 11.9
 Constraint12_0_0: b(0) >= 11.9
 Constraint11_0_1: b(0) <= 11.9
 Constraint12_0_1: b(0) >= 11.9
 Constraint11_1_0: b(1) <= 15.9833333333333
 Constraint12_1_0: b(1) >= 15.9833333333333
 Constraint11_1_1: b(1) <= 15.9833333333333
 Constraint12_1_1: b(1) >= 15.9833333333333
 Constraint11_2_0: b(2) <= 17
 Constraint12_2_0: b(2) >= 0
 Constraint11_2_1: b(2) <= 17
 Constraint12_2_1: b(2) >= 0
 Constraint11_3_0: b(3) <= 17
 Constraint12_3_0: b(3) >= 0
 Constraint11_3_1: b(3) <= 17
 Constraint12_3_1: b(3) >= 0
 Constraint11_4_0: b(4) <= 17
 Constraint12_4_0: b(4) >= 9
 Constraint11_4_1: b(4) <= 17
 Constraint12_4_1: b(4) >= 9
 Constraint11_5_0: b(5) <= 17
 Constraint12_5_0: b(5) >= 9
 Constraint11_5_1: b(5) <= 17
 Constraint12_5_1: b(5) >= 9
 Constraint11_6_0: b(6) <= 17
 Constraint12_6_0: b(6) >= 9
 Constraint11_6_1: b(6) <= 17
 Constraint12_6_1: b(6) >= 9
 Constraint14:     w(6)  = 0
Bounds
 0 <= x(0,1,0) <= 1
 0 <= x(0,1,1) <= 1
 0 <= x(0,2,0) <= 1
 0 <= x(0,2,1) <= 1
 0 <= x(0,3,0) <= 1
 0 <= x(0,3,1) <= 1
 0 <= x(0,6,0) <= 1
 0 <= x(0,6,1) <= 1
 0 <= x(1,0,0) <= 1
 0 <= x(1,0,1) <= 1
 0 <= x(1,2,0) <= 1
 0 <= x(1,2,1) <= 1
 0 <= x(1,3,0) <= 1
 0 <= x(1,3,1) <= 1
 0 <= x(1,6,0) <= 1
 0 <= x(1,6,1) <= 1
 0 <= x(2,0,0) <= 1
 0 <= x(2,0,1) <= 1
 0 <= x(2,1,0) <= 1
 0 <= x(2,1,1) <= 1
 0 <= x(2,2,0) <= 1
 0 <= x(2,2,1) <= 1
 0 <= x(3,0,0) <= 1
 0 <= x(3,0,1) <= 1
 0 <= x(3,1,0) <= 1
 0 <= x(3,1,1) <= 1
 0 <= x(3,3,0) <= 1
 0 <= x(3,3,1) <= 1
 0 <= x(3,6,0) <= 1
 0 <= x(3,6,1) <= 1
 0 <= x(4,0,0) <= 1
 0 <= x(4,0,1) <= 1
 0 <= x(4,1,0) <= 1
 0 <= x(4,1,1) <= 1
 0 <= x(4,2,0) <= 1
 0 <= x(4,2,1) <= 1
 0 <= x(5,0,0) <= 1
 0 <= x(5,0,1) <= 1
 0 <= x(5,1,0) <= 1
 0 <= x(5,1,1) <= 1
 0 <= x(5,2,0) <= 1
 0 <= x(5,2,1) <= 1
 0 <= y(0) <= 1
 0 <= y(1) <= 1
 0 <= y(2) <= 1
 0 <= y(3) <= 1
 0 <= y(4) <= 1
 0 <= y(5) <= 1
 0 <= y(6) <= 1
 0 <= b(0) <= 17
 0 <= b(1) <= 17
 0 <= b(2) <= 17
 0 <= b(3) <= 17
 0 <= b(4) <= 17
 0 <= b(5) <= 17
 0 <= b(6) <= 17
 0 <= w(0) <= 1
 0 <= w(1) <= 1
 0 <= w(2) <= 1
 0 <= w(3) <= 1
 0 <= w(4) <= 1
 0 <= w(5) <= 1
 0 <= w(6) <= 1
Binaries
 x(0,1,0)  x(0,1,1)  x(0,2,0)  x(0,2,1)  x(0,3,0)  x(0,3,1)  x(0,6,0) 
 x(0,6,1)  x(1,0,0)  x(1,0,1)  x(1,2,0)  x(1,2,1)  x(1,3,0)  x(1,3,1) 
 x(1,6,0)  x(1,6,1)  x(2,0,0)  x(2,0,1)  x(2,1,0)  x(2,1,1)  x(2,2,0) 
 x(2,2,1)  x(3,0,0)  x(3,0,1)  x(3,1,0)  x(3,1,1)  x(3,3,0)  x(3,3,1) 
 x(3,6,0)  x(3,6,1)  x(4,0,0)  x(4,0,1)  x(4,1,0)  x(4,1,1)  x(4,2,0) 
 x(4,2,1)  x(5,0,0)  x(5,0,1)  x(5,1,0)  x(5,1,1)  x(5,2,0)  x(5,2,1)  y(0) 
 y(1)  y(2)  y(3)  y(4)  y(5)  y(6) 
End
